p cnf 1138 1264
c ind 833 838 839 840 841 842 844 845 846 847 0
c ind 848 849 850 851 852 853 854 855 856 857 0
c ind 858 859 860 861 862 863 868 869 875 876 0
c ind 877 878 879 880 881 882 883 884 885 886 0
c ind 887 888 889 898 899 900 901 904 905 906 0
c ind 907 908 909 912 913 914 915 916 917 926 0
c ind 927 928 929 932 933 934 935 936 937 940 0
c ind 941 942 943 944 945 946 947 948 949 950 0
c ind 952 953 954 955 956 957 958 959 960 961 0
c ind 962 963 964 965 966 967 968 969 970 971 0
c ind 972 974 976 977 978 979 980 981 982 983 0
c ind 984 985 989 990 991 992 993 995 997 998 0
c ind 999 1000 1001 1002 1003 1004 1005 1006 1012 1013 0
c ind 1024 1025 1026 1027 1029 1030 1032 1034 1038 1043 0
c ind 1044 1045 1046 1047 1048 1049 1050 1051 1052 1053 0
c ind 1054 1055 1056 1057 1058 1060 1062 1063 1066 1067 0
c ind 1068 1069 1070 1074 1075 1076 1077 1078 1081 1082 0
c ind 1083 1084 1085 1086 1087 1088 1089 1090 1091 1092 0
c ind 1094 1096 1097 1098 1100 1129 1114 1105 1109 1136 0
c ind 1113 1104 1108 1118 1119 1127 1128 1135 1117 1126 0
c ind 1121 1123 834 835 1103 1112 1116 1120 1122 1125 0
c ind 1131 1107 1134 1101 1111 1115 1124 1106 1133 843 0
c ind 1099 1102 1130 1110 1132 1008 1011 1009 1010 951 0
c ind 1095 836 837 1093 1079 1080 1073 1071 1072 1064 0
c ind 1065 1059 1061 1031 1033 1039 1040 1041 1042 1036 0
c ind 1037 1017 1018 1020 1021 1022 1023 1014 1015 1016 0
c ind 1019 994 996 1028 1035 988 986 987 1007 973 0
c ind 975 832 864 867 865 866 872 874 871 873 0
c ind 930 931 870 925 938 939 921 903 910 911 0
c ind 918 919 920 922 923 897 924 890 893 902 0
c ind 891 892 894 895 896 1 0
c ret 600 601 602 603 604 605 606 607 608 609 0
c ret 610 611 612 613 614 615 616 617 618 619 0
c ret 620 621 622 623 624 625 626 627 628 629 0
c ret 630 631 632 633 634 635 636 637 638 639 0
c ret 640 641 642 643 644 645 646 647 648 649 0
c ret 650 651 652 653 654 655 656 657 658 659 0
c ret 660 661 662 663 664 665 666 667 668 669 0
c ret 670 671 672 673 674 675 676 677 678 679 0
c ret 680 681 682 683 684 685 686 687 688 689 0
c ret 690 691 692 693 694 695 696 697 698 699 0
c ret 700 701 702 703 704 705 706 707 708 709 0
c ret 710 711 712 713 714 715 716 717 718 719 0
c ret 720 721 722 723 724 725 726 727 728 729 0
c ret 730 731 732 733 734 735 736 737 738 739 0
c ret 740 741 742 743 744 745 746 747 748 749 0
c ret 750 751 752 753 754 755 756 757 758 759 0
c ret 760 761 762 763 764 765 766 767 768 769 0
c ret 770 771 772 773 774 775 776 777 778 779 0
c ret 780 781 782 783 784 785 786 787 788 789 0
c ret 790 791 792 793 295 794 795 301 302 303 0
c ret 304 796 305 306 307 308 309 310 311 312 0
c ret 313 314 315 316 317 318 319 320 321 322 0
c ret 323 324 325 326 797 798 327 328 329 799 0
c ret 330 800 331 332 333 334 335 336 337 296 0
c ret 338 339 340 341 342 343 344 345 346 347 0
c ret 801 802 348 349 803 350 804 351 352 353 0
c ret 354 355 356 357 358 359 360 361 362 363 0
c ret 364 805 365 366 367 368 369 370 371 806 0
c ret 807 372 808 373 809 374 375 376 377 378 0
c ret 297 379 380 381 382 383 384 385 386 387 0
c ret 810 388 389 390 391 392 811 393 812 394 0
c ret 395 396 397 813 814 398 399 400 401 402 0
c ret 403 404 405 406 407 408 409 410 411 412 0
c ret 815 413 816 414 415 416 817 417 818 418 0
c ret 298 419 420 421 422 423 424 425 426 427 0
c ret 428 429 430 431 819 432 433 434 820 435 0
c ret 821 436 437 822 823 438 439 440 441 442 0
c ret 443 444 445 446 447 448 449 824 825 450 0
c ret 451 452 453 826 454 455 456 457 458 459 0
c ret 460 461 462 463 464 465 466 467 468 827 0
c ret 469 470 471 472 828 473 829 474 830 831 0
c ret 475 476 477 478 479 480 481 482 483 484 0
c ret 485 486 487 488 489 299 490 491 492 493 0
c ret 494 495 496 497 498 499 500 501 502 503 0
c ret 504 505 506 507 508 509 510 511 512 513 0
c ret 514 515 516 517 518 519 520 521 522 523 0
c ret 524 525 526 527 528 300 529 530 531 532 0
c ret 533 534 535 536 537 538 539 540 541 542 0
c ret 543 544 545 546 547 548 549 550 551 552 0
c ret 553 554 555 556 557 558 559 560 561 562 0
c ret 563 564 565 566 567 568 569 570 571 572 0
c ret 573 574 575 576 577 578 579 580 581 582 0
c ret 583 584 585 586 587 588 589 590 591 592 0
c ret 593 594 595 596 597 598 599 0
2 131 290 -291 0
2 3 290 -291 0
-2 291 0
-2 -290 0
-2 -3 -131 0
3 -4 -54 -121 0
3 4 54 111 0
3 4 54 -121 0
3 -4 -54 111 0
-3 4 -54 0
-3 -4 54 0
-3 -111 121 0
4 5 -11 0
4 5 48 0
-4 -5 0
-4 11 -48 0
5 -7 -8 0
5 -6 -8 0
-5 8 0
-5 6 7 0
6 1064 0
6 -1065 -1071 0
6 1065 -1072 0
-6 -1064 1065 1072 0
-6 -1064 -1065 1071 0
-6 7 0
7 -1073 1079 0
7 1073 1080 0
6 -7 -1073 -1079 0
6 -7 1073 -1080 0
8 -9 -10 0
-6 8 -10 0
-8 10 0
6 -8 9 0
-6 9 0
9 1073 -1080 0
9 -1073 -1079 0
6 -9 -1073 1079 0
6 -9 1073 1080 0
10 1064 0
10 -1065 1071 0
10 1065 1072 0
-10 -1064 1065 -1072 0
-10 -1064 -1065 -1071 0
11 -12 -47 -1114 0
11 12 -13 -47 0
-11 47 0
-11 -12 1114 0
-11 12 13 0
12 1059 -1061 0
-12 -1059 0
-12 1061 0
13 -14 -1113 0
13 14 -15 0
-13 -14 1113 0
-13 14 15 0
14 1031 -1033 0
-14 -1031 0
-14 1033 0
15 16 39 46 0
15 16 39 -42 0
-15 -16 0
-15 -39 0
-15 42 -46 0
16 -37 832 -1007 0
16 17 832 1007 0
-16 -832 0
-16 37 -1007 0
-16 -17 1007 0
17 -18 -1110 0
-17 1110 0
-17 18 0
18 -19 33 0
-18 19 0
-18 -33 0
19 -26 27 0
19 20 27 -897 0
-19 -27 0
-19 -20 26 0
-19 26 897 0
20 21 0
20 24 -896 0
20 24 902 0
-20 -21 -24 0
-20 -21 896 -902 0
21 -22 23 -890 -897 0
-21 22 0
-21 -23 0
-21 890 0
-21 897 0
22 891 892 893 0
-22 -891 0
-22 -893 0
-22 -892 0
23 894 -895 0
-23 -894 0
-23 895 0
24 25 896 902 -903 0
-24 -896 0
-24 -25 0
-24 903 0
-24 -902 0
25 910 911 0
-25 -910 0
-25 -911 0
22 26 -890 0
23 26 -890 -896 0
-26 890 0
-22 -26 896 0
-22 -23 -26 0
27 29 32 0
27 29 -31 0
27 28 29 0
-27 -29 0
-27 -28 31 -32 0
28 919 920 921 0
-28 -919 0
-28 -921 0
-28 -920 0
28 29 -918 0
29 30 -918 -924 0
-29 918 0
-28 -29 924 0
-28 -29 -30 0
30 922 -923 0
-30 -922 0
-30 923 0
31 930 931 0
31 930 938 939 0
-31 -930 0
-31 -931 -938 0
-31 -931 -939 0
30 32 -918 924 -925 0
-32 925 0
-30 -32 0
-32 918 0
-32 -924 0
33 -34 -864 0
33 -36 -864 0
33 -35 -864 0
-33 864 0
-33 34 35 36 0
34 -865 866 867 0
-34 865 0
-34 -867 0
-34 -866 0
35 870 873 874 0
-35 -870 0
-35 -874 0
-35 -873 0
36 -870 871 872 0
-36 870 0
-36 -872 0
-36 -871 0
37 -38 1111 0
17 37 38 0
-37 -38 -1111 0
-17 -37 38 0
38 973 -975 0
-38 -973 0
-38 975 0
39 -40 -41 -1017 0
39 -40 -41 -1018 0
-39 41 0
-39 40 0
-39 1017 1018 0
40 1020 1021 1022 1023 0
-40 -1023 0
-40 -1022 0
-40 -1020 0
-40 -1021 0
41 -1014 -1015 -1016 1019 0
-41 1016 0
-41 -1019 0
-41 1014 0
-41 1015 0
37 42 -43 0
-37 -42 0
-42 43 0
43 44 45 0
-43 -44 0
-43 -45 0
44 994 -996 0
-44 -994 0
-44 996 0
45 986 987 988 0
-45 -986 0
-45 -988 0
-45 -987 0
44 46 -832 0
46 -832 1112 0
-46 832 0
-44 -46 -1112 0
47 -1028 1035 0
-47 1028 0
-47 -1035 0
48 -49 -1028 0
13 15 48 0
13 48 -1028 0
15 48 -49 0
-15 -48 1028 0
-13 -48 49 0
49 51 1035 0
49 -50 51 0
49 51 1028 0
-49 -51 0
-49 50 -1028 -1035 0
50 -1036 1037 0
-50 1036 0
-50 -1037 0
51 52 -53 0
-51 -52 0
-51 53 0
52 1039 -1040 -1041 1042 0
-52 -1039 0
-52 -1042 0
-52 1041 0
-52 1040 0
53 -1028 -1035 -1036 1037 0
-53 1036 0
-53 -1037 0
-53 1028 0
-53 1035 0
54 -55 -66 0
54 -55 105 0
-54 55 0
-54 66 -105 0
55 56 -62 0
-55 -56 0
-55 62 0
56 -58 -59 0
56 -57 -59 0
-56 59 0
-56 57 58 0
57 527 0
57 -528 -534 0
57 528 -535 0
-57 -527 528 535 0
-57 -527 -528 534 0
-57 58 0
58 -536 542 0
58 536 543 0
57 -58 -536 -542 0
57 -58 536 -543 0
-57 59 -60 0
59 -60 -61 0
-59 60 0
57 -59 61 0
60 527 0
60 -528 534 0
60 528 535 0
-60 -527 528 -535 0
-60 -527 -528 -534 0
-57 61 0
61 536 -543 0
61 -536 -542 0
57 -61 -536 542 0
57 -61 536 543 0
62 -63 -64 -65 0
-62 63 0
-62 64 0
-62 65 0
63 -556 -730 -759 0
-63 556 0
-63 730 0
-63 759 0
64 -614 -643 0
-64 614 0
-64 643 0
65 -585 -672 -701 0
-65 585 0
-65 672 0
-65 701 0
66 -67 -104 -809 0
66 67 -68 -104 0
-66 104 0
-66 -67 809 0
-66 67 68 0
67 522 -524 0
-67 -522 0
-67 524 0
68 -69 -808 0
68 69 -70 0
-68 -69 808 0
-68 69 70 0
69 494 -496 0
-69 -494 0
-69 496 0
70 71 96 103 0
70 71 96 -99 0
-70 -71 0
-70 -96 0
-70 99 -103 0
71 -94 295 -470 0
71 72 295 470 0
-71 -295 0
-71 94 -470 0
-71 -72 470 0
72 -73 -805 0
-72 805 0
-72 73 0
73 74 -78 0
-73 -74 0
-73 78 0
74 -75 -327 0
74 -77 -327 0
74 -76 -327 0
-74 327 0
-74 75 76 77 0
75 -328 329 330 0
-75 328 0
-75 -330 0
-75 -329 0
76 333 336 337 0
-76 -333 0
-76 -337 0
-76 -336 0
77 -333 334 335 0
-77 333 0
-77 -335 0
-77 -334 0
78 79 -86 0
78 79 89 -360 0
-78 -79 0
-78 86 -89 0
-78 86 360 0
79 -80 83 0
79 83 381 0
-79 -83 0
-79 80 -381 0
80 -82 384 387 0
80 -81 -82 384 0
-80 -384 0
-80 82 0
-80 81 -387 0
81 385 -386 0
-81 -385 0
-81 386 0
82 382 383 0
-82 -382 0
-82 -383 0
81 -82 83 84 -85 0
82 -83 0
-83 -84 0
-81 -83 0
-83 85 0
84 393 394 0
84 393 401 402 0
-84 -393 0
-84 -394 -401 0
-84 -394 -402 0
85 -381 384 387 -388 0
-85 388 0
-85 -387 0
-85 381 0
-85 -384 0
86 87 -353 0
86 88 -353 -359 0
-86 353 0
-86 -87 359 0
-86 -87 -88 0
87 354 355 356 0
-87 -354 0
-87 -356 0
-87 -355 0
88 357 -358 0
-88 -357 0
-88 358 0
89 90 93 0
-89 -90 0
-89 -93 0
90 -91 -92 -373 0
90 -91 -92 -374 0
-90 92 0
-90 91 0
-90 373 374 0
-87 88 91 -353 -360 0
87 -91 0
-88 -91 0
-91 353 0
-91 360 0
92 359 365 -366 0
-92 366 0
-92 -365 0
-92 -359 0
-91 93 359 -365 0
91 -93 0
-93 365 0
-93 -359 0
94 -95 806 0
72 94 95 0
-94 -95 -806 0
-72 -94 95 0
95 436 -438 0
-95 -436 0
-95 438 0
96 -97 -98 -480 0
96 -97 -98 -481 0
-96 98 0
-96 97 0
-96 480 481 0
97 483 484 485 486 0
-97 -486 0
-97 -485 0
-97 -483 0
-97 -484 0
98 -477 -478 -479 482 0
-98 479 0
-98 -482 0
-98 477 0
-98 478 0
94 99 -100 0
-94 -99 0
-99 100 0
100 101 102 0
-100 -101 0
-100 -102 0
101 449 450 451 0
-101 -449 0
-101 -451 0
-101 -450 0
102 457 -459 0
-102 -457 0
-102 459 0
102 103 -295 0
103 -295 807 0
-103 295 0
-102 -103 -807 0
104 -491 498 0
-104 491 0
-104 -498 0
105 -106 -491 0
68 70 105 0
68 105 -491 0
70 105 -106 0
-70 -105 491 0
-68 -105 106 0
106 108 498 0
106 -107 108 0
106 108 491 0
-106 -108 0
-106 107 -491 -498 0
107 -499 500 0
-107 499 0
-107 -500 0
108 109 -110 0
-108 -109 0
-108 110 0
109 502 -503 -504 505 0
-109 -502 0
-109 -505 0
-109 504 0
-109 503 0
110 -491 -498 -499 500 0
-110 499 0
-110 -500 0
-110 491 0
-110 498 0
5 111 -112 0
5 111 120 0
-5 -111 0
-111 112 -120 0
12 -47 112 -113 0
-12 -47 112 -1136 0
47 -112 0
12 -112 113 0
-12 -112 1136 0
-14 113 -1135 0
14 113 -114 0
-14 -113 1135 0
14 -113 114 0
39 114 115 119 0
39 114 115 -118 0
-39 -114 0
-114 -115 0
-114 118 -119 0
115 -117 832 -1007 0
115 116 832 1007 0
-115 -832 0
-115 117 -1007 0
-115 -116 1007 0
-18 116 -1132 0
-116 1132 0
18 -116 0
-38 117 1133 0
38 116 117 0
-38 -117 -1133 0
38 -116 -117 0
-43 117 118 0
43 -118 0
-117 -118 0
44 119 -832 0
119 -832 1134 0
-119 832 0
-44 -119 -1134 0
-49 114 120 0
113 120 -1028 0
-49 120 -1028 0
113 114 120 0
49 -113 -120 0
-114 -120 1028 0
-55 121 -122 0
-55 121 130 0
55 -121 0
-121 122 -130 0
67 -104 122 -123 0
-67 -104 122 -831 0
104 -122 0
67 -122 123 0
-67 -122 831 0
-69 123 -830 0
69 123 -124 0
-69 -123 830 0
69 -123 124 0
96 124 125 129 0
96 124 125 -128 0
-96 -124 0
-124 -125 0
-124 128 -129 0
125 -127 295 -470 0
125 126 295 470 0
-125 -295 0
-125 127 -470 0
-125 -126 470 0
-73 126 -827 0
-126 827 0
73 -126 0
-95 127 828 0
95 126 127 0
-95 -127 -828 0
95 -126 -127 0
-100 127 128 0
100 -128 0
-127 -128 0
102 129 -295 0
129 -295 829 0
-129 295 0
-102 -129 -829 0
-106 124 130 0
123 130 -491 0
-106 130 -491 0
123 124 130 0
106 -123 -130 0
-124 -130 491 0
131 132 141 -150 -269 0
131 -132 -141 -150 -269 0
-131 269 0
-131 -132 141 0
-131 150 0
-131 132 -141 0
5 132 -133 0
5 132 140 0
-5 -132 0
-132 133 -140 0
12 -47 133 -134 0
-12 -47 133 -1109 0
47 -133 0
12 -133 134 0
-12 -133 1109 0
-14 134 -1108 0
14 134 -135 0
-14 -134 1108 0
14 -134 135 0
39 135 136 139 0
39 135 136 -138 0
-39 -135 0
-135 -136 0
-135 138 -139 0
136 -137 832 -1007 0
18 136 832 1007 0
-136 -832 0
-136 137 -1007 0
-18 -136 1007 0
-38 137 1106 0
18 38 137 0
-38 -137 -1106 0
-18 38 -137 0
-43 137 138 0
43 -138 0
-137 -138 0
44 139 -832 0
139 -832 1107 0
-139 832 0
-44 -139 -1107 0
-49 135 140 0
134 140 -1028 0
-49 140 -1028 0
134 135 140 0
49 -134 -140 0
-135 -140 1028 0
-55 141 -142 0
-55 141 149 0
55 -141 0
-141 142 -149 0
67 -104 142 -143 0
-67 -104 142 -804 0
104 -142 0
67 -142 143 0
-67 -142 804 0
-69 143 -803 0
69 143 -144 0
-69 -143 803 0
69 -143 144 0
96 144 145 148 0
96 144 145 -147 0
-96 -144 0
-144 -145 0
-144 147 -148 0
145 -146 295 -470 0
73 145 295 470 0
-145 -295 0
-145 146 -470 0
-73 -145 470 0
-95 146 801 0
73 95 146 0
-95 -146 -801 0
-73 95 -146 0
-100 146 147 0
100 -147 0
-146 -147 0
102 148 -295 0
148 -295 802 0
-148 295 0
-102 -148 -802 0
-106 144 149 0
143 149 -491 0
-106 149 -491 0
143 144 149 0
106 -143 -149 0
-144 -149 491 0
150 151 164 -178 -230 0
150 -151 -164 -178 -230 0
-150 230 0
-150 -151 164 0
-150 178 0
-150 151 -164 0
5 151 -162 0
5 151 -161 0
5 151 -152 0
-5 -151 0
-151 152 161 162 0
152 155 -156 0
-43 152 153 -156 0
-152 156 0
-152 -153 -155 0
43 -152 -155 0
-38 153 1116 0
38 153 154 0
-38 -153 -1116 0
38 -153 -154 0
-18 154 -1115 0
-154 1115 0
18 -154 0
44 155 -832 0
155 -832 1117 0
-155 832 0
-44 -155 -1117 0
156 157 -158 0
-156 -157 0
-156 158 0
-153 157 832 -1007 0
154 157 832 1007 0
-157 -832 0
153 -157 -1007 0
-154 -157 1007 0
39 158 159 0
-39 -158 0
-158 -159 0
-14 159 -1028 0
159 -160 -1028 0
-159 1028 0
14 -159 160 0
-12 51 160 1035 0
-50 51 160 -1035 0
-51 -160 0
50 -160 -1035 0
12 -160 1035 0
-12 -47 161 -1119 0
-161 1119 0
12 -161 0
47 -161 0
-14 162 -163 -1118 0
-162 1118 0
14 -162 0
-162 163 0
160 163 -1028 0
-163 1028 0
-160 -163 0
164 -165 -177 0
164 -174 -177 0
164 -175 -177 0
-164 177 0
-164 165 174 175 0
165 168 -169 0
-100 165 166 -169 0
-165 169 0
-165 -166 -168 0
100 -165 -168 0
-95 166 811 0
95 166 167 0
-95 -166 -811 0
95 -166 -167 0
-73 167 -810 0
-167 810 0
73 -167 0
102 168 -295 0
168 -295 812 0
-168 295 0
-102 -168 -812 0
169 170 -171 0
-169 -170 0
-169 171 0
-166 170 295 -470 0
167 170 295 470 0
-170 -295 0
166 -170 -470 0
-167 -170 470 0
96 171 172 0
-96 -171 0
-171 -172 0
-69 172 -491 0
172 -173 -491 0
-172 491 0
69 -172 173 0
-67 108 173 498 0
-107 108 173 -498 0
-108 -173 0
107 -173 -498 0
67 -173 498 0
-67 -104 174 -814 0
-174 814 0
67 -174 0
104 -174 0
-69 175 -176 -813 0
-175 813 0
69 -175 0
-175 176 0
173 176 -491 0
-176 491 0
-173 -176 0
56 -63 -64 -65 177 0
-56 -177 0
65 -177 0
64 -177 0
63 -177 0
178 179 201 209 -217 0
178 179 -201 -209 -217 0
-178 217 0
-178 -201 209 0
-178 -179 0
-178 201 -209 0
179 180 -190 0
179 -180 190 0
-179 -180 -190 0
-179 180 190 0
180 181 -188 832 0
180 181 -187 -188 0
-180 188 0
-180 -181 0
-180 187 -832 0
181 182 186 0
181 184 186 0
181 182 -184 832 0
-181 -182 -184 0
-181 184 -186 0
-181 -186 -832 0
-19 182 -1093 0
-19 33 182 183 0
19 -182 0
-182 -183 1093 0
-33 -182 1093 0
183 843 1130 0
-183 -843 0
-183 -1130 0
184 -185 1007 1008 1011 0
-184 185 0
-184 -1011 0
-184 -1007 0
-184 -1008 0
185 1009 1010 0
-185 -1009 0
-185 -1010 0
186 951 -1131 0
-182 186 -951 0
182 -186 -951 0
-186 951 1131 0
45 -186 187 0
-45 -187 0
186 -187 0
8 188 -189 0
7 188 -189 -1064 0
-188 189 0
-7 -8 -188 0
-8 -188 1064 0
39 53 189 0
39 52 189 0
-39 -189 0
-52 -53 -189 0
190 191 -198 295 0
190 191 -197 -198 0
-190 198 0
-190 -191 0
-190 197 -295 0
191 192 196 0
191 194 196 0
191 192 -194 295 0
-191 -192 -194 0
-191 194 -196 0
-191 -196 -295 0
-78 192 -788 0
74 -78 192 193 0
78 -192 0
-192 -193 788 0
-74 -192 788 0
193 306 825 0
-193 -306 0
-193 -825 0
194 -195 470 471 474 0
-194 195 0
-194 -474 0
-194 -470 0
-194 -471 0
195 472 473 0
-195 -472 0
-195 -473 0
196 414 -826 0
-192 196 -414 0
192 -196 -414 0
-196 414 826 0
101 -196 197 0
-101 -197 0
196 -197 0
-62 198 -199 0
62 -198 0
-198 199 0
59 199 -200 0
58 199 -200 -527 0
-199 200 0
-58 -59 -199 0
-59 -199 527 0
96 110 200 0
96 109 200 0
-96 -200 0
-109 -110 -200 0
-188 201 202 0
188 -201 0
-201 -202 0
184 202 -203 0
202 207 208 0
202 -203 207 0
-202 203 -208 0
-184 -202 -207 0
-202 203 -207 0
203 204 -951 0
-19 203 -206 951 0
-203 -204 -951 0
19 -203 951 0
-203 206 951 0
-19 204 -205 0
19 -204 0
-204 205 0
205 -1093 -1095 0
33 205 1093 0
205 -1093 -1099 0
-33 -205 1093 0
-205 -1093 1095 1099 0
206 -1093 1095 1101 0
-206 1093 0
-206 -1101 0
-206 -1095 0
184 207 832 0
-204 207 832 0
-207 -832 0
-184 204 -207 0
45 208 -832 0
-208 832 0
-45 -208 0
-198 209 210 0
198 -209 0
-209 -210 0
194 210 -211 0
210 215 216 0
210 -211 215 0
-210 211 -216 0
-194 -210 -215 0
-210 211 -215 0
211 212 -414 0
-78 211 -214 414 0
-211 -212 -414 0
78 -211 414 0
-211 214 414 0
-78 212 -213 0
78 -212 0
-212 213 0
213 -788 -790 0
74 213 788 0
213 -788 -794 0
-74 -213 788 0
-213 -788 790 794 0
214 -788 790 796 0
-214 788 0
-214 -796 0
-214 -790 0
194 215 295 0
-212 215 295 0
-215 -295 0
-194 212 -215 0
101 216 -295 0
-216 295 0
-101 -216 0
217 218 223 226 -227 0
217 -218 -223 226 -227 0
-217 -226 0
-217 218 -223 0
-217 227 0
-217 -218 223 0
-78 -199 218 219 -220 0
-218 220 0
78 -218 0
199 -218 0
-218 -219 0
-101 219 -295 0
-219 295 0
101 -219 0
220 -221 -222 -788 790 0
-220 222 0
-220 788 0
-220 221 0
-220 -790 0
221 -556 -585 -730 -759 0
-221 759 0
-221 556 0
-221 730 0
-221 585 0
-64 222 -672 -701 0
-222 672 0
-222 701 0
64 -222 0
-19 -188 223 -224 225 0
-223 224 0
-223 -225 0
19 -223 0
188 -223 0
224 -1093 1095 0
-224 1093 0
-224 -1095 0
-45 225 -832 0
-225 832 0
45 -225 0
-7 -9 -10 226 0
7 -226 0
9 -226 0
10 -226 0
20 27 227 -228 0
-26 27 227 -228 0
-227 228 0
-27 -227 0
-20 26 -227 0
33 -189 225 228 -229 0
189 -228 0
-225 -228 0
-33 -228 0
-228 229 0
229 -835 -836 0
229 -834 837 0
229 -834 -836 0
229 -835 837 0
-229 836 -837 0
-229 834 835 0
230 231 240 -249 -259 0
230 -231 -240 -249 -259 0
230 231 240 249 259 0
230 -231 -240 249 259 0
-230 231 -240 0
-230 -231 240 0
-230 249 -259 0
-230 -249 259 0
5 231 -239 0
5 231 -238 0
5 231 -232 0
-5 -231 0
-231 232 238 239 0
232 235 -236 0
-43 232 233 -236 0
-232 236 0
-232 -233 -235 0
43 -232 -235 0
-38 233 1125 0
38 233 234 0
-38 -233 -1125 0
38 -233 -234 0
-18 234 -1124 0
-234 1124 0
18 -234 0
44 235 -832 0
235 -832 1126 0
-235 832 0
-44 -235 -1126 0
-158 236 237 0
158 -236 0
-236 -237 0
-233 237 832 -1007 0
234 237 832 1007 0
-237 -832 0
233 -237 -1007 0
-234 -237 1007 0
-12 -47 238 -1128 0
-238 1128 0
12 -238 0
47 -238 0
-14 -163 239 -1127 0
-239 1127 0
14 -239 0
163 -239 0
-177 240 -241 0
-177 240 -248 0
-177 240 -247 0
177 -240 0
-240 241 247 248 0
241 244 -245 0
-100 241 242 -245 0
-241 245 0
-241 -242 -244 0
100 -241 -244 0
-95 242 820 0
95 242 243 0
-95 -242 -820 0
95 -242 -243 0
-73 243 -819 0
-243 819 0
73 -243 0
102 244 -295 0
244 -295 821 0
-244 295 0
-102 -244 -821 0
-171 245 246 0
171 -245 0
-245 -246 0
-242 246 295 -470 0
243 246 295 470 0
-246 -295 0
242 -246 -470 0
-243 -246 470 0
-67 -104 247 -823 0
-247 823 0
67 -247 0
104 -247 0
-69 -176 248 -822 0
-248 822 0
69 -248 0
176 -248 0
5 249 250 258 0
5 159 249 250 0
-5 -249 0
-249 -250 0
-159 -249 -258 0
250 252 1028 0
14 250 251 252 0
-250 -252 0
-250 -251 -1028 0
-14 -250 -1028 0
-12 251 1035 -1123 0
12 -251 0
-251 1123 0
-251 -1035 0
39 252 253 257 0
39 252 253 -256 0
-39 -252 0
-252 -253 0
-252 256 -257 0
253 -255 832 -1007 0
253 254 832 1007 0
-253 -832 0
-253 255 -1007 0
-253 -254 1007 0
-18 254 -836 0
-254 836 0
18 -254 0
-38 255 1120 0
38 254 255 0
-38 -255 -1120 0
38 -254 -255 0
-43 255 256 0
43 -256 0
-255 -256 0
44 257 -832 0
257 -832 1121 0
-257 832 0
-44 -257 -1121 0
-160 251 258 0
251 258 1122 0
-251 -258 0
160 -258 -1122 0
-55 172 259 260 0
-55 259 260 268 0
55 -259 0
-259 -260 0
-172 -259 -268 0
260 262 491 0
69 260 261 262 0
-260 -262 0
-260 -261 -491 0
-69 -260 -491 0
-67 261 498 -818 0
67 -261 0
-261 818 0
-261 -498 0
96 262 263 267 0
96 262 263 -266 0
-96 -262 0
-262 -263 0
-262 266 -267 0
263 -265 295 -470 0
263 264 295 470 0
-263 -295 0
-263 265 -470 0
-263 -264 470 0
-73 264 -299 0
-264 299 0
73 -264 0
-95 265 815 0
95 264 265 0
-95 -265 -815 0
95 -264 -265 0
-100 265 266 0
100 -266 0
-265 -266 0
102 267 -295 0
267 -295 816 0
-267 295 0
-102 -267 -816 0
-173 261 268 0
261 268 817 0
-261 -268 0
173 -268 -817 0
121 269 270 280 0
-111 269 -270 -280 0
-111 269 270 280 0
121 269 -270 -280 0
-269 270 -280 0
-269 -270 280 0
111 -121 -269 0
5 270 -271 0
5 270 279 0
-5 -270 0
-270 271 -279 0
12 -47 271 -272 0
-12 -47 271 -1105 0
47 -271 0
12 -271 272 0
-12 -271 1105 0
-14 272 -1104 0
14 272 -273 0
-14 -272 1104 0
14 -272 273 0
39 273 274 278 0
39 273 274 -277 0
-39 -273 0
-273 -274 0
-273 277 -278 0
274 275 -832 1103 0
44 274 275 -832 0
-274 832 0
-274 -275 0
-44 -274 -1103 0
-43 275 276 0
43 -275 0
-275 -276 0
18 38 276 0
-38 276 1102 0
38 276 837 0
-38 -276 -1102 0
-18 38 -276 -837 0
-18 38 277 -837 0
-18 277 -837 1007 0
18 -277 0
-277 837 0
-38 -277 -1007 0
278 832 1102 0
278 832 1007 0
38 278 832 0
-278 -832 0
-38 -278 -1007 -1102 0
-49 273 279 0
272 279 -1028 0
-49 279 -1028 0
272 273 279 0
49 -272 -279 0
-273 -279 1028 0
-55 280 -281 0
-55 280 289 0
55 -280 0
-280 281 -289 0
67 -104 281 -282 0
-67 -104 281 -800 0
104 -281 0
67 -281 282 0
-67 -281 800 0
-69 282 -799 0
69 282 -283 0
-69 -282 799 0
69 -282 283 0
96 283 284 288 0
96 283 284 -287 0
-96 -283 0
-283 -284 0
-283 287 -288 0
284 285 -295 798 0
102 284 285 -295 0
-284 295 0
-284 -285 0
-102 -284 -798 0
-100 285 286 0
100 -285 0
-285 -286 0
73 95 286 0
-95 286 797 0
95 286 300 0
-95 -286 -797 0
-73 95 -286 -300 0
-73 95 287 -300 0
-73 287 -300 470 0
73 -287 0
-287 300 0
-95 -287 -470 0
288 295 797 0
288 295 470 0
95 288 295 0
-288 -295 0
-95 -288 -470 -797 0
-106 283 289 0
282 289 -491 0
-106 289 -491 0
282 283 289 0
106 -282 -289 0
-283 -289 491 0
-58 -60 -61 290 0
58 -290 0
60 -290 0
61 -290 0
-86 291 -292 0
-90 291 -292 0
-93 291 -292 0
-291 292 0
86 90 93 -291 0
74 79 -200 292 -293 0
-74 -292 0
-292 293 0
200 -292 0
-79 -292 0
219 -221 -222 293 -294 0
-219 -293 0
-293 294 0
222 -293 0
221 -293 0
294 -298 -299 0
294 -297 300 0
294 -297 -299 0
294 -298 300 0
-294 299 -300 0
-294 297 298 0
1 2 0
-1 -2 0
1137 0

